p td 167 1404
1 2
1 5
1 6
1 9
1 13
1 14
1 18
1 37
1 38
1 39
1 45
1 53
1 54
1 55
1 59
1 61
1 68
1 72
1 73
1 74
1 75
1 80
2 5
2 6
2 9
2 13
2 14
2 18
2 37
2 38
2 39
2 45
2 53
2 54
2 55
2 59
2 61
2 68
2 72
2 73
2 74
2 75
2 80
3 98
3 67
3 4
3 135
3 8
3 41
3 42
3 107
3 71
3 88
3 114
3 19
3 149
3 7
3 58
3 91
3 60
3 90
4 19
4 107
4 98
4 7
4 8
4 41
4 42
4 71
4 60
4 114
4 67
4 149
4 88
4 90
4 91
4 135
4 58
5 6
5 9
5 10
5 13
5 14
5 15
5 18
5 20
5 25
5 26
5 27
5 30
5 31
5 32
5 35
5 36
5 37
5 38
5 39
5 40
5 43
5 44
5 45
5 46
5 47
5 48
5 49
5 52
5 53
5 54
5 55
5 56
5 59
5 61
5 64
5 68
5 72
5 73
5 74
5 75
5 80
5 82
5 83
5 84
5 87
6 9
6 10
6 13
6 14
6 15
6 18
6 20
6 25
6 26
6 27
6 30
6 31
6 32
6 35
6 36
6 37
6 38
6 39
6 40
6 43
6 44
6 45
6 46
6 47
6 48
6 49
6 52
6 53
6 54
6 55
6 56
6 59
6 61
6 64
6 68
6 72
6 73
6 74
6 75
6 80
6 82
6 83
6 84
6 87
7 107
7 19
7 98
7 67
7 135
7 8
7 41
7 42
7 71
7 114
7 149
7 88
7 90
7 91
7 60
7 58
8 19
8 107
8 98
8 41
8 42
8 71
8 60
8 114
8 67
8 149
8 88
8 58
8 91
8 135
8 90
9 10
9 13
9 14
9 15
9 18
9 20
9 25
9 26
9 27
9 30
9 31
9 32
9 35
9 36
9 37
9 38
9 39
9 40
9 43
9 44
9 45
9 46
9 47
9 48
9 49
9 52
9 53
9 54
9 55
9 56
9 59
9 61
9 64
9 68
9 72
9 73
9 74
9 75
9 80
9 82
9 83
9 84
9 87
10 14
10 15
10 18
10 20
10 25
10 26
10 27
10 30
10 31
10 32
10 35
10 36
10 37
10 38
10 39
10 40
10 43
10 44
10 45
10 46
10 47
10 48
10 49
10 52
10 53
10 54
10 55
10 56
10 59
10 61
10 64
10 68
10 73
10 82
10 83
10 84
10 87
11 33
11 34
11 67
11 71
11 136
11 12
11 16
11 17
11 19
11 118
11 120
11 57
11 58
11 60
12 33
12 34
12 67
12 71
12 136
12 16
12 17
12 19
12 118
12 120
12 57
12 58
12 60
13 14
13 18
13 37
13 38
13 39
13 45
13 53
13 54
13 55
13 59
13 61
13 68
13 72
13 73
13 74
13 75
13 80
14 15
14 18
14 20
14 35
14 36
14 37
14 38
14 39
14 40
14 43
14 44
14 45
14 46
14 53
14 54
14 55
14 56
14 59
14 61
14 64
14 68
14 72
14 73
14 74
14 75
14 80
14 82
14 83
14 84
14 87
15 18
15 20
15 25
15 26
15 27
15 30
15 31
15 32
15 35
15 36
15 37
15 38
15 39
15 40
15 43
15 44
15 45
15 46
15 47
15 48
15 49
15 52
15 53
15 54
15 55
15 56
15 59
15 61
15 64
15 68
15 73
15 82
15 83
15 84
15 87
16 33
16 34
16 67
16 71
16 136
16 17
16 19
16 118
16 120
16 57
16 58
16 60
17 33
17 34
17 67
17 71
17 136
17 19
17 118
17 120
17 57
17 58
17 60
18 20
18 25
18 26
18 27
18 30
18 31
18 32
18 35
18 36
18 37
18 38
18 39
18 40
18 43
18 44
18 45
18 46
18 47
18 48
18 49
18 52
18 53
18 54
18 55
18 56
18 59
18 61
18 64
18 68
18 72
18 73
18 74
18 75
18 80
18 82
18 83
18 84
18 87
19 135
19 149
19 33
19 34
19 41
19 42
19 136
19 57
19 58
19 60
19 67
19 71
19 88
19 90
19 91
19 98
19 107
19 114
19 118
19 120
20 25
20 26
20 27
20 30
20 31
20 32
20 35
20 36
20 37
20 38
20 39
20 40
20 43
20 44
20 45
20 46
20 47
20 48
20 49
20 52
20 53
20 54
20 55
20 56
20 59
20 61
20 64
20 68
20 73
20 82
20 83
20 84
20 87
21 69
21 113
21 104
21 103
21 108
21 109
21 81
21 22
22 69
22 81
22 104
22 103
22 108
22 109
22 113
23 128
23 99
23 144
23 150
23 24
23 127
24 128
24 99
24 144
24 150
24 127
25 26
25 27
25 30
25 31
25 32
25 35
25 36
25 37
25 38
25 39
25 40
25 43
25 44
25 45
25 46
25 47
25 48
25 49
25 52
25 53
25 54
25 55
25 56
25 59
25 61
25 64
26 27
26 30
26 31
26 32
26 35
26 36
26 37
26 38
26 39
26 40
26 43
26 44
26 45
26 46
26 47
26 48
26 49
26 52
26 53
26 54
26 55
26 56
26 59
26 61
26 64
27 30
27 31
27 32
27 35
27 36
27 37
27 38
27 39
27 40
27 43
27 44
27 45
27 46
27 47
27 48
27 49
27 52
27 53
27 54
27 55
27 56
27 59
27 61
27 64
28 131
28 138
28 78
28 79
28 89
28 92
28 29
29 131
29 138
29 78
29 79
29 89
29 92
30 31
30 32
30 35
30 36
30 37
30 38
30 39
30 40
30 43
30 44
30 45
30 46
30 47
30 48
30 49
30 52
30 53
30 54
30 55
30 56
30 59
30 61
30 64
31 32
31 35
31 36
31 37
31 38
31 39
31 40
31 43
31 44
31 45
31 46
31 47
31 48
31 49
31 52
31 53
31 54
31 55
31 56
31 59
31 61
31 64
32 35
32 36
32 37
32 38
32 39
32 40
32 43
32 44
32 45
32 46
32 47
32 48
32 49
32 52
32 53
32 54
32 55
32 56
32 59
32 61
32 64
33 34
33 67
33 71
33 136
33 118
33 120
33 57
33 58
33 60
34 67
34 71
34 136
34 118
34 120
34 57
34 58
34 60
35 36
35 37
35 38
35 39
35 40
35 43
35 44
35 45
35 46
35 47
35 48
35 49
35 52
35 53
35 54
35 55
35 56
35 59
35 61
35 64
35 68
35 73
35 82
35 83
35 84
35 87
36 37
36 38
36 39
36 40
36 43
36 44
36 45
36 46
36 47
36 48
36 49
36 52
36 53
36 54
36 55
36 56
36 59
36 61
36 64
36 68
36 73
36 82
36 83
36 84
36 87
37 38
37 39
37 40
37 43
37 44
37 45
37 46
37 47
37 48
37 49
37 52
37 53
37 54
37 55
37 56
37 59
37 61
37 64
37 68
37 72
37 73
37 74
37 75
37 80
37 82
37 83
37 84
37 87
38 39
38 40
38 43
38 44
38 45
38 46
38 47
38 48
38 49
38 52
38 53
38 54
38 55
38 56
38 59
38 61
38 64
38 68
38 72
38 73
38 74
38 75
38 80
38 82
38 83
38 84
38 87
39 40
39 43
39 44
39 45
39 46
39 47
39 48
39 49
39 52
39 53
39 54
39 55
39 56
39 59
39 61
39 64
39 68
39 72
39 73
39 74
39 75
39 80
39 82
39 83
39 84
39 87
40 43
40 44
40 45
40 46
40 47
40 48
40 49
40 52
40 53
40 54
40 55
40 56
40 59
40 61
40 64
40 68
40 73
40 82
40 83
40 84
40 87
41 149
41 152
41 153
41 159
41 42
41 135
41 58
41 60
41 67
41 69
41 71
41 88
41 90
41 91
41 96
41 97
41 98
41 107
41 110
41 114
41 123
41 124
42 107
42 98
42 67
42 71
42 60
42 114
42 149
42 88
42 90
42 91
42 135
42 58
43 44
43 45
43 46
43 47
43 48
43 49
43 52
43 53
43 54
43 55
43 56
43 59
43 61
43 64
43 68
43 73
43 82
43 83
43 84
43 87
44 45
44 46
44 47
44 48
44 49
44 52
44 53
44 54
44 55
44 56
44 59
44 61
44 64
44 68
44 73
44 82
44 83
44 84
44 87
45 46
45 47
45 48
45 49
45 52
45 53
45 54
45 55
45 56
45 59
45 61
45 64
45 68
45 72
45 73
45 74
45 75
45 80
45 82
45 83
45 84
45 87
46 47
46 48
46 49
46 52
46 53
46 54
46 55
46 56
46 59
46 61
46 64
46 68
46 73
46 82
46 83
46 84
46 87
47 48
47 49
47 52
47 53
47 54
47 55
47 56
47 59
47 61
47 64
48 49
48 52
48 53
48 54
48 55
48 56
48 59
48 61
48 64
49 52
49 53
49 54
49 55
49 56
49 59
49 61
49 64
50 100
50 101
50 102
50 51
50 88
50 70
50 69
51 100
51 69
51 102
51 141
51 81
51 85
51 86
51 88
51 70
51 101
52 53
52 54
52 55
52 56
52 59
52 61
52 64
53 54
53 55
53 56
53 59
53 61
53 64
53 68
53 72
53 73
53 74
53 75
53 80
53 82
53 83
53 84
53 87
54 55
54 56
54 59
54 61
54 64
54 68
54 72
54 73
54 74
54 75
54 80
54 82
54 83
54 84
54 87
55 56
55 59
55 61
55 64
55 68
55 72
55 73
55 74
55 75
55 80
55 82
55 83
55 84
55 87
56 59
56 61
56 64
56 68
56 73
56 82
56 83
56 84
56 87
57 67
57 71
57 136
57 118
57 120
57 58
57 60
58 135
58 149
58 136
58 60
58 67
58 71
58 88
58 90
58 91
58 98
58 107
58 114
58 118
58 120
59 61
59 64
59 68
59 72
59 73
59 74
59 75
59 80
59 82
59 83
59 84
59 87
60 136
60 149
60 135
60 67
60 71
60 88
60 90
60 91
60 98
60 107
60 114
60 118
60 120
61 64
61 68
61 72
61 73
61 74
61 75
61 80
61 82
61 83
61 84
61 87
62 65
62 66
62 76
62 77
62 111
62 112
62 63
62 126
62 95
63 65
63 66
63 76
63 77
63 126
64 68
64 73
64 82
64 83
64 84
64 87
65 66
65 76
65 77
65 126
66 76
66 77
66 126
67 149
67 135
67 136
67 71
67 88
67 90
67 91
67 98
67 107
67 114
67 118
67 120
68 72
68 73
68 74
68 75
68 80
68 82
68 83
68 84
68 87
69 100
69 101
69 70
69 103
69 104
69 113
69 108
69 109
69 110
69 81
69 116
69 117
69 88
69 121
69 122
69 102
70 100
70 102
70 88
70 101
71 149
71 135
71 136
71 88
71 90
71 91
71 98
71 107
71 114
71 118
71 120
72 73
72 74
72 75
72 80
73 74
73 75
73 80
73 82
73 83
73 84
73 87
74 75
74 80
75 80
76 77
76 111
76 112
76 126
76 95
77 126
78 131
78 138
78 79
78 89
78 92
79 131
79 92
79 138
79 89
81 102
81 103
81 104
81 108
81 141
81 109
81 113
81 86
81 85
82 83
82 84
82 87
83 84
83 87
84 87
85 102
85 86
85 141
86 102
86 141
88 135
88 149
88 90
88 91
88 98
88 100
88 101
88 102
88 107
88 110
88 114
88 116
88 117
88 121
88 122
89 131
89 138
89 92
90 161
90 98
90 132
90 135
90 107
90 114
90 149
90 91
90 125
91 107
91 98
91 135
91 114
91 149
92 131
92 138
93 133
93 134
93 145
93 146
93 154
93 155
93 94
94 133
94 134
94 145
94 146
94 154
94 155
95 112
95 111
96 97
96 123
96 124
97 123
97 124
98 135
98 107
98 114
98 149
99 128
99 144
99 150
99 127
100 101
100 102
101 102
102 141
103 113
103 104
103 108
103 109
104 113
104 108
104 109
105 106
105 115
105 151
105 126
105 119
106 115
106 151
106 126
106 119
107 135
107 114
107 149
108 113
108 109
109 113
111 112
114 135
114 149
115 151
115 126
115 119
116 122
116 117
117 122
118 136
118 120
119 126
119 151
120 136
121 122
123 124
125 161
125 132
126 151
127 128
127 144
127 150
128 144
128 150
129 137
129 130
130 162
130 137
131 138
132 161
133 134
133 145
133 146
133 154
133 155
134 145
134 146
134 154
134 155
135 149
139 140
142 160
142 156
142 143
143 160
143 156
144 150
145 146
145 154
145 155
146 154
146 155
147 148
152 153
152 159
153 159
154 155
156 160
157 158
163 164
165 166
165 167
166 167
